(set-logic QF_S)
(declare-fun var0 () String)
(declare-fun var1 () String)
(declare-fun var2 () String)
(declare-fun var3 () String)
(declare-fun var4 () String)
(declare-fun var5 () String)
(declare-fun var6 () String)
(declare-fun var7 () String)
(declare-fun var8 () String)
(declare-fun var9 () String)
(declare-fun var10 () String)
(declare-fun var11 () String)
(declare-fun var12 () String)
(declare-fun var13 () String)
(declare-fun var14 () String)
(declare-fun var15 () String)
(declare-fun var16 () String)
(declare-fun var17 () String)
(declare-fun var18 () String)
(declare-fun var19 () String)
(declare-fun var20 () String)
(declare-fun var21 () String)
(declare-fun var22 () String)
(declare-fun var23 () String)
(declare-fun var24 () String)
(declare-fun var25 () String)
(declare-fun var26 () String)
(declare-fun var27 () String)
(declare-fun var28 () String)
(declare-fun var29 () String)
(declare-fun var30 () String)
(declare-fun var31 () String)
(declare-fun var32 () String)
(declare-fun var33 () String)
(declare-fun var34 () String)
(declare-fun var35 () String)
(declare-fun var36 () String)
(declare-fun var37 () String)
(declare-fun var38 () String)
(declare-fun var39 () String)
(declare-fun var40 () String)
(declare-fun var41 () String)
(declare-fun var42 () String)
(declare-fun var43 () String)
(declare-fun var44 () String)
(declare-fun var45 () String)
(declare-fun var46 () String)
(declare-fun var47 () String)
(declare-fun var48 () String)
(declare-fun var49 () String)
(declare-fun var50 () String)
(declare-fun var51 () String)
(declare-fun var52 () String)
(declare-fun var53 () String)
(declare-fun var54 () String)
(declare-fun var55 () String)
(declare-fun var56 () String)
(declare-fun var57 () String)
(declare-fun var58 () String)
(declare-fun var59 () String)
(declare-fun var60 () String)
(assert (= var0 (str.++ var1 var2)))
(assert (= var2 (str.++ var3 var4)))
(assert (= var4 (str.++ var5 var6)))
(assert (= var6 (str.++ var7 var8)))
(assert (= var8 (str.++ var9 var10)))
(assert (= var10 (str.++ var11 var12)))
(assert (= var12 (str.++ var13 var14)))
(assert (= var14 (str.++ var15 var16)))
(assert (= var16 (str.++ var17 var18)))
(assert (= var18 (str.++ var19 var20)))
(assert (= var20 (str.++ var21 var22)))
(assert (= var22 (str.++ var23 var24)))
(assert (= var24 (str.++ var25 var26)))
(assert (= var26 (str.++ var27 var28)))
(assert (= var28 (str.++ var29 var30)))
(assert (= var30 (str.++ var31 var32)))
(assert (= var32 (str.++ var33 var34)))
(assert (= var34 (str.++ var35 var36)))
(assert (= var36 (str.++ var37 var38)))
(assert (= var38 (str.++ var39 var40)))
(assert (= var40 (str.++ var41 var42)))
(assert (= var42 (str.++ var43 var44)))
(assert (= var44 (str.++ var45 var46)))
(assert (= var46 (str.++ var47 var48)))
(assert (= var48 (str.++ var49 var50)))
(assert (= var50 (str.++ var51 var52)))
(assert (= var52 (str.++ var53 var54)))
(assert (= var54 (str.++ var55 var56)))
(assert (= var56 (str.++ var57 var58)))
(assert (= var58 (str.++ var59 var60)))
(assert (= var0 "solution"))
(assert (= "H" (str.at var36 694)))
(assert (= "$" (str.at var49 830)))
(assert (= "0" (str.at var50 550)))
(assert (= "q" (str.at var2 988)))
(assert (= "_" (str.at var20 903)))
(assert (= "a" (str.at var36 500)))
(assert (= "*" (str.at var31 622)))
(assert (= "g" (str.at var44 250)))
(assert (= "t" (str.at var26 648)))
(assert (= "2" (str.at var19 718)))
(assert (= "l" (str.at var47 104)))
(assert (= "X" (str.at var39 381)))
(assert (= "1" (str.at var25 49)))
(assert (= "P" (str.at var16 872)))
(assert (= "l" (str.at var51 985)))
(assert (= "," (str.at var2 855)))
(assert (= "$" (str.at var15 929)))
(assert (= "$" (str.at var16 442)))
(assert (= ";" (str.at var30 873)))
(assert (= "F" (str.at var31 748)))
(assert (= "$" (str.at var41 541)))
(assert (= "/" (str.at var55 970)))
(assert (= "p" (str.at var54 207)))
(assert (= "x" (str.at var31 53)))
(assert (= "S" (str.at var11 695)))
(assert (= "c" (str.at var57 401)))
(assert (= "e" (str.at var5 522)))
(assert (= "w" (str.at var10 11)))
(assert (= "{" (str.at var22 692)))
(assert (= "*" (str.at var15 347)))
(assert (= "+" (str.at var10 925)))
(assert (= "5" (str.at var16 677)))
(assert (= "2" (str.at var19 614)))
(assert (= "U" (str.at var3 662)))
(assert (= ":" (str.at var30 961)))
(assert (= "?" (str.at var20 891)))
(assert (= "#" (str.at var15 997)))
(assert (= "Y" (str.at var0 349)))
(assert (= "i" (str.at var47 967)))
(assert (= "r" (str.at var34 134)))
(assert (= "3" (str.at var17 983)))
(assert (= "B" (str.at var38 275)))
(assert (= "9" (str.at var42 504)))
(assert (= "1" (str.at var45 450)))
(assert (= "!" (str.at var48 543)))
(assert (= ";" (str.at var32 184)))
(assert (= "p" (str.at var0 103)))
(assert (= "i" (str.at var0 572)))
(assert (= "`" (str.at var35 543)))
(assert (= "]" (str.at var20 389)))
(assert (= "=" (str.at var53 659)))
(assert (= "n" (str.at var9 321)))
(assert (= "}" (str.at var34 655)))
(assert (= "2" (str.at var23 81)))
(assert (= "^" (str.at var2 269)))
(assert (= "-" (str.at var17 51)))
(assert (= "Z" (str.at var12 855)))
(assert (= "-" (str.at var33 427)))
(assert (= "Z" (str.at var10 360)))
(assert (= "k" (str.at var18 114)))
(assert (= ")" (str.at var58 815)))
(assert (= "J" (str.at var34 891)))
(assert (= ":" (str.at var22 478)))
(assert (= "-" (str.at var22 103)))
(assert (= "z" (str.at var46 991)))
(assert (= "{" (str.at var56 186)))
(assert (= "@" (str.at var10 60)))
(assert (= "b" (str.at var16 371)))
(assert (= "@" (str.at var15 725)))
(assert (= "t" (str.at var37 221)))
(assert (= "^" (str.at var57 390)))
(assert (= "q" (str.at var6 625)))
(assert (= "2" (str.at var54 851)))
(assert (= "!" (str.at var7 59)))
(assert (= "V" (str.at var53 908)))
(assert (= "&" (str.at var49 592)))
(assert (= ":" (str.at var19 187)))
(assert (= "n" (str.at var41 968)))
(assert (= "c" (str.at var50 169)))
(assert (= "9" (str.at var16 372)))
(assert (= "?" (str.at var36 228)))
(assert (= "#" (str.at var30 637)))
(assert (= "i" (str.at var56 629)))
(assert (= """" (str.at var52 32)))
(assert (= "G" (str.at var24 452)))
(assert (= "0" (str.at var2 278)))
(assert (= "S" (str.at var1 139)))
(assert (= "Y" (str.at var4 331)))
(assert (= "8" (str.at var23 669)))
(assert (= "S" (str.at var32 440)))
(assert (= "." (str.at var5 859)))
(assert (= "s" (str.at var27 837)))
(assert (= "g" (str.at var24 89)))
(assert (= "8" (str.at var47 536)))
(assert (= "$" (str.at var20 841)))
(assert (= "K" (str.at var21 40)))
(assert (= """" (str.at var38 647)))
(assert (= "N" (str.at var48 936)))
(assert (= "+" (str.at var18 441)))
(assert (= "d" (str.at var40 466)))
(assert (= "D" (str.at var12 169)))
(assert (= "&" (str.at var21 398)))
(assert (= "|" (str.at var43 982)))
(assert (= "p" (str.at var9 733)))
(assert (= "_" (str.at var10 399)))
(assert (= "_" (str.at var37 748)))
(assert (= "S" (str.at var41 584)))
(assert (= "'" (str.at var37 236)))
(assert (= "h" (str.at var52 208)))
(assert (= "F" (str.at var25 45)))
(assert (= "n" (str.at var59 175)))
(assert (= ")" (str.at var1 870)))
(assert (= ")" (str.at var48 382)))
(assert (= "5" (str.at var14 290)))
(assert (= "#" (str.at var57 888)))
(assert (= "p" (str.at var29 281)))
(assert (= "I" (str.at var9 36)))
(assert (= "6" (str.at var3 396)))
(assert (= "M" (str.at var20 858)))
(assert (= "c" (str.at var55 377)))
(assert (= "t" (str.at var44 281)))
(assert (= "A" (str.at var54 682)))
(assert (= "M" (str.at var4 867)))
(assert (= ")" (str.at var30 66)))
(assert (= "c" (str.at var41 367)))
(assert (= "m" (str.at var44 750)))
(assert (= "b" (str.at var32 675)))
(assert (= "9" (str.at var33 960)))
(assert (= "*" (str.at var15 66)))
(assert (= "'" (str.at var8 70)))
(assert (= "k" (str.at var18 138)))
(assert (= "6" (str.at var37 203)))
(assert (= ";" (str.at var27 765)))
(assert (= "J" (str.at var28 430)))
(assert (= "k" (str.at var40 418)))
(assert (= ">" (str.at var50 683)))
(assert (= "5" (str.at var51 400)))
(assert (= "V" (str.at var42 968)))
(assert (= "V" (str.at var54 51)))
(assert (= "1" (str.at var40 533)))
(assert (= "j" (str.at var45 89)))
(assert (= "_" (str.at var13 614)))
(assert (= "l" (str.at var11 370)))
(assert (= "4" (str.at var10 40)))
(assert (= "," (str.at var38 42)))
(assert (= "k" (str.at var16 582)))
(assert (= "e" (str.at var51 440)))
(assert (= "'" (str.at var39 670)))
(assert (= "J" (str.at var20 643)))
(assert (= "G" (str.at var33 687)))
(assert (= "!" (str.at var26 127)))
(assert (= "." (str.at var52 281)))
(assert (= "2" (str.at var17 148)))
(assert (= "|" (str.at var28 242)))
(assert (= "h" (str.at var41 739)))
(assert (= "X" (str.at var12 746)))
(assert (= "'" (str.at var44 991)))
(assert (= "U" (str.at var30 810)))
(assert (= "D" (str.at var48 540)))
(assert (= "3" (str.at var2 615)))
(assert (= "'" (str.at var46 797)))
(assert (= "S" (str.at var60 310)))
(assert (= "u" (str.at var23 500)))
(assert (= "R" (str.at var40 19)))
(assert (= "&" (str.at var1 282)))
(assert (= "i" (str.at var18 863)))
(assert (= "Y" (str.at var3 844)))
(assert (= "]" (str.at var30 117)))
(assert (= "W" (str.at var13 688)))
(assert (= "i" (str.at var26 307)))
(assert (= "E" (str.at var60 139)))
(assert (= "/" (str.at var19 265)))
(assert (= "{" (str.at var14 789)))
(assert (= "(" (str.at var56 326)))
(assert (= "'" (str.at var46 792)))
(assert (= "/" (str.at var11 312)))
(assert (= "+" (str.at var15 553)))
(assert (= "C" (str.at var0 292)))
(assert (= "@" (str.at var23 12)))
(assert (= "7" (str.at var36 276)))
(assert (= "l" (str.at var60 805)))
(assert (= "1" (str.at var11 147)))
(assert (= "B" (str.at var4 370)))
(assert (= "(" (str.at var52 226)))
(assert (= "I" (str.at var28 580)))
(assert (= "X" (str.at var41 46)))
(assert (= "i" (str.at var3 302)))
(assert (= "l" (str.at var26 957)))
(assert (= "T" (str.at var40 308)))
(assert (= "@" (str.at var42 589)))
(assert (= "&" (str.at var1 359)))
(assert (= "k" (str.at var57 576)))
(assert (= "[" (str.at var33 721)))
(assert (= "<" (str.at var42 454)))
(assert (= "X" (str.at var25 262)))
(assert (= "-" (str.at var48 273)))
(assert (= "f" (str.at var32 467)))
(assert (= "'" (str.at var0 168)))
(assert (= "!" (str.at var54 62)))
(assert (= "d" (str.at var59 158)))
(assert (= "Y" (str.at var30 815)))
(assert (= "k" (str.at var57 639)))
(assert (= "g" (str.at var46 682)))
(assert (= "1" (str.at var45 635)))
(assert (= "I" (str.at var59 834)))
(assert (= "d" (str.at var35 968)))
(assert (= "N" (str.at var33 470)))
(assert (= "*" (str.at var32 269)))
(assert (= "&" (str.at var1 102)))
(assert (= "m" (str.at var38 487)))
(assert (= "<" (str.at var19 644)))
(assert (= "+" (str.at var59 21)))
(assert (= "*" (str.at var52 836)))
(assert (= "#" (str.at var25 358)))
(assert (= "S" (str.at var50 708)))
(assert (= "W" (str.at var5 967)))
(assert (= "w" (str.at var30 847)))
(assert (= "z" (str.at var17 924)))
(assert (= "r" (str.at var29 813)))
(assert (= "k" (str.at var15 709)))
(assert (= "P" (str.at var16 354)))
(assert (= "`" (str.at var14 286)))
(assert (= "T" (str.at var8 679)))
(assert (= "N" (str.at var23 925)))
(assert (= "L" (str.at var41 515)))
(assert (= "N" (str.at var24 901)))
(assert (= "z" (str.at var28 690)))
(assert (= "O" (str.at var14 44)))
(assert (= "K" (str.at var59 629)))
(assert (= "x" (str.at var34 354)))
(assert (= "l" (str.at var16 527)))
(assert (= "Y" (str.at var28 298)))
(assert (= "l" (str.at var2 928)))
(assert (= "y" (str.at var7 28)))
(assert (= "0" (str.at var13 204)))
(assert (= "1" (str.at var39 267)))
(assert (= "!" (str.at var4 728)))
(assert (= "Q" (str.at var7 688)))
(assert (= "O" (str.at var52 648)))
(assert (= "(" (str.at var46 629)))
(assert (= "U" (str.at var6 919)))
(assert (= "j" (str.at var13 276)))
(assert (= "R" (str.at var0 705)))
(assert (= "g" (str.at var46 745)))
(assert (= "_" (str.at var57 809)))
(assert (= "R" (str.at var11 90)))
(assert (= "1" (str.at var34 197)))
(assert (= "Z" (str.at var50 258)))
(assert (= "7" (str.at var54 511)))
(assert (= "8" (str.at var9 887)))
(assert (= "(" (str.at var11 773)))
(assert (= "c" (str.at var1 939)))
(assert (= "G" (str.at var17 730)))
(assert (= "H" (str.at var10 785)))
(assert (= "k" (str.at var57 486)))
(assert (= "B" (str.at var14 536)))
(assert (= "b" (str.at var39 540)))
(assert (= "B" (str.at var40 833)))
(assert (= "f" (str.at var48 94)))
(assert (= "*" (str.at var40 987)))
(assert (= "x" (str.at var52 403)))
(assert (= "h" (str.at var56 156)))
(assert (= "j" (str.at var6 543)))
(assert (= "6" (str.at var7 521)))
(assert (= "9" (str.at var26 159)))
(assert (= "4" (str.at var38 682)))
(assert (= "l" (str.at var25 799)))
(assert (= ">" (str.at var31 613)))
(assert (= "D" (str.at var3 773)))
(assert (= "L" (str.at var11 177)))
(assert (= "4" (str.at var58 308)))
(assert (= "[" (str.at var17 123)))
(assert (= "[" (str.at var6 877)))
(assert (= "." (str.at var7 262)))
(assert (= "Z" (str.at var26 847)))
(assert (= "L" (str.at var24 19)))
(assert (= "Q" (str.at var52 574)))
(assert (= "o" (str.at var47 292)))
(assert (= "_" (str.at var24 773)))
(assert (= "K" (str.at var49 153)))
(assert (= "J" (str.at var44 86)))
(assert (= "4" (str.at var41 590)))
(assert (= "V" (str.at var44 559)))
(assert (= "V" (str.at var41 544)))
(assert (= "N" (str.at var35 378)))
(assert (= "y" (str.at var41 710)))
(assert (= "G" (str.at var7 893)))
(assert (= "b" (str.at var39 772)))
(assert (= "r" (str.at var0 488)))
(assert (= "_" (str.at var6 986)))
(assert (= "?" (str.at var37 338)))
(assert (= "9" (str.at var53 840)))
(assert (= "L" (str.at var51 364)))
(assert (= "M" (str.at var10 796)))
(assert (= "B" (str.at var38 606)))
(assert (= "R" (str.at var20 395)))
(assert (= "?" (str.at var40 759)))
(assert (= "X" (str.at var39 62)))
(assert (= "4" (str.at var43 637)))
(assert (= "b" (str.at var21 289)))
(assert (= "O" (str.at var21 281)))
(assert (= "S" (str.at var37 685)))
(assert (= "T" (str.at var0 498)))
(assert (= "X" (str.at var59 447)))
(assert (= "F" (str.at var49 350)))
(assert (= "<" (str.at var17 177)))
(assert (= "W" (str.at var3 941)))
(assert (= "-" (str.at var15 677)))
(assert (= "/" (str.at var51 587)))
(assert (= "(" (str.at var45 12)))
(assert (= "}" (str.at var7 797)))
(assert (= "v" (str.at var2 290)))
(assert (= "3" (str.at var36 218)))
(assert (= "7" (str.at var0 784)))
(assert (= "2" (str.at var58 400)))
(assert (= "R" (str.at var28 923)))
(assert (= """" (str.at var41 770)))
(assert (= "!" (str.at var39 380)))
(assert (= "q" (str.at var26 450)))
(assert (= "p" (str.at var24 926)))
(assert (= "L" (str.at var0 844)))
(assert (= "O" (str.at var1 699)))
(assert (= "m" (str.at var0 726)))
(assert (= "x" (str.at var53 85)))
(assert (= "!" (str.at var38 166)))
(assert (= "x" (str.at var33 79)))
(assert (= "W" (str.at var23 666)))
(assert (= "i" (str.at var37 260)))
(assert (= ")" (str.at var17 667)))
(assert (= "&" (str.at var5 467)))
(assert (= "B" (str.at var59 145)))
(assert (= "4" (str.at var44 660)))
(assert (= "N" (str.at var47 39)))
(assert (= "7" (str.at var45 64)))
(assert (= "O" (str.at var41 320)))
(assert (= "h" (str.at var52 416)))
(assert (= "U" (str.at var49 149)))
(assert (= "~" (str.at var12 651)))
(assert (= "_" (str.at var15 785)))
(assert (= "g" (str.at var60 19)))
(assert (= "c" (str.at var47 614)))
(assert (= "*" (str.at var25 739)))
(assert (= "t" (str.at var60 750)))
(assert (= "M" (str.at var1 150)))
(assert (= "h" (str.at var38 784)))
(assert (= "6" (str.at var17 885)))
(assert (= "w" (str.at var34 448)))
(assert (= "=" (str.at var44 246)))
(assert (= "q" (str.at var14 610)))
(assert (= "o" (str.at var33 437)))
(assert (= "1" (str.at var26 373)))
(assert (= "E" (str.at var25 762)))
(assert (= "`" (str.at var5 407)))
(assert (= "6" (str.at var30 523)))
(assert (= "$" (str.at var59 989)))
(assert (= "k" (str.at var32 237)))
(assert (= "%" (str.at var27 170)))
(assert (= ">" (str.at var11 601)))
(assert (= "|" (str.at var29 650)))
(assert (= "!" (str.at var56 561)))
(assert (= "5" (str.at var60 998)))
(assert (= "Z" (str.at var25 194)))
(assert (= "y" (str.at var14 343)))
(assert (= "!" (str.at var50 922)))
(assert (= "x" (str.at var46 316)))
(assert (= "?" (str.at var40 865)))
(assert (= "m" (str.at var8 765)))
(assert (= "`" (str.at var37 836)))
(assert (= "~" (str.at var53 566)))
(assert (= "7" (str.at var43 311)))
(assert (= "z" (str.at var7 347)))
(assert (= "U" (str.at var34 958)))
(assert (= "z" (str.at var30 568)))
(assert (= "_" (str.at var26 709)))
(assert (= "k" (str.at var22 367)))
(assert (= "p" (str.at var14 236)))
(assert (= ";" (str.at var7 574)))
(assert (= "m" (str.at var56 808)))
(assert (= "~" (str.at var52 942)))
(assert (= "<" (str.at var23 210)))
(assert (= "4" (str.at var15 117)))
(assert (= "D" (str.at var10 63)))
(assert (= "q" (str.at var36 416)))
(assert (= "k" (str.at var18 506)))
(assert (= "^" (str.at var15 97)))
(assert (= "u" (str.at var5 410)))
(assert (= "g" (str.at var41 677)))
(assert (= "E" (str.at var45 381)))
(assert (= "Q" (str.at var9 763)))
(assert (= "6" (str.at var12 16)))
(assert (= "U" (str.at var37 885)))
(assert (= "/" (str.at var45 958)))
(assert (= "8" (str.at var60 989)))
(assert (= "<" (str.at var34 396)))
(assert (= "y" (str.at var15 465)))
(assert (= "P" (str.at var48 924)))
(assert (= "a" (str.at var18 98)))
(assert (= "I" (str.at var25 156)))
(assert (= ")" (str.at var35 261)))
(assert (= "t" (str.at var53 969)))
(assert (= "S" (str.at var43 878)))
(check-sat)
(get-model)